c Standarized MaxSat Instance
c{
c "sha1sum": "ff7d512fc5e3e8a079c1a3545b30d3530901aebb",
c "nvars": 140,
c "ncls": 1260,
c "nhards": 0,
c "nhard_len_stats":
c    { "min": 0, "max": 0, "ave": 0.00,
c      "stddev": 0.00 },
c "nsofts": 1260,
c "nsoft_len_stats":
c    { "min": 2, "max": 2, "ave": 2.00,
c      "stddev": 0.00 },
c "nsoft_wts": 1,
c "soft_wt_stats":
c    { "min": 1, "max": 1, "ave": 1.00,
c      "stddev": 0.00 }
c}
c------------------------------------------------------------
c strEdges: 189  randomEdges: 441 
c degrees:  2  3 
c girth: 10 max: 8.032766  
c Hgirth mixed MAXCUT instance
c generated from an undirected graph
c to solve unweighted MaxCut
p wcnf 140 1260 1261
1 99 72 0
1 -99 -72 0
1 99 131 0
1 -99 -131 0
1 99 26 0
1 -99 -26 0
1 82 83 0
1 -82 -83 0
1 82 52 0
1 -82 -52 0
1 82 47 0
1 -82 -47 0
1 21 77 0
1 -21 -77 0
1 21 87 0
1 -21 -87 0
1 114 135 0
1 -114 -135 0
1 114 65 0
1 -114 -65 0
1 114 57 0
1 -114 -57 0
1 102 130 0
1 -102 -130 0
1 102 117 0
1 -102 -117 0
1 102 35 0
1 -102 -35 0
1 76 120 0
1 -76 -120 0
1 76 53 0
1 -76 -53 0
1 76 107 0
1 -76 -107 0
1 58 42 0
1 -58 -42 0
1 58 129 0
1 -58 -129 0
1 123 35 0
1 -123 -35 0
1 123 42 0
1 -123 -42 0
1 5 27 0
1 -5 -27 0
1 5 72 0
1 -5 -72 0
1 5 45 0
1 -5 -45 0
1 78 117 0
1 -78 -117 0
1 78 18 0
1 -78 -18 0
1 78 140 0
1 -78 -140 0
1 22 111 0
1 -22 -111 0
1 22 77 0
1 -22 -77 0
1 22 44 0
1 -22 -44 0
1 25 66 0
1 -25 -66 0
1 25 4 0
1 -25 -4 0
1 90 109 0
1 -90 -109 0
1 90 53 0
1 -90 -53 0
1 133 112 0
1 -133 -112 0
1 133 35 0
1 -133 -35 0
1 133 17 0
1 -133 -17 0
1 95 129 0
1 -95 -129 0
1 95 106 0
1 -95 -106 0
1 95 39 0
1 -95 -39 0
1 91 96 0
1 -91 -96 0
1 91 69 0
1 -91 -69 0
1 91 126 0
1 -91 -126 0
1 122 128 0
1 -122 -128 0
1 122 42 0
1 -122 -42 0
1 122 103 0
1 -122 -103 0
1 14 10 0
1 -14 -10 0
1 14 13 0
1 -14 -13 0
1 14 128 0
1 -14 -128 0
1 62 140 0
1 -62 -140 0
1 62 93 0
1 -62 -93 0
1 62 118 0
1 -62 -118 0
1 64 52 0
1 -64 -52 0
1 64 11 0
1 -64 -11 0
1 92 137 0
1 -92 -137 0
1 92 20 0
1 -92 -20 0
1 73 125 0
1 -73 -125 0
1 73 109 0
1 -73 -109 0
1 79 33 0
1 -79 -33 0
1 79 137 0
1 -79 -137 0
1 41 139 0
1 -41 -139 0
1 41 83 0
1 -41 -83 0
1 41 1 0
1 -41 -1 0
1 70 26 0
1 -70 -26 0
1 70 66 0
1 -70 -66 0
1 70 110 0
1 -70 -110 0
1 6 103 0
1 -6 -103 0
1 6 101 0
1 -6 -101 0
1 6 97 0
1 -6 -97 0
1 108 47 0
1 -108 -47 0
1 108 19 0
1 -108 -19 0
1 108 94 0
1 -108 -94 0
1 7 13 0
1 -7 -13 0
1 7 33 0
1 -7 -33 0
1 63 126 0
1 -63 -126 0
1 63 12 0
1 -63 -12 0
1 63 129 0
1 -63 -129 0
1 16 118 0
1 -16 -118 0
1 16 84 0
1 -16 -84 0
1 16 112 0
1 -16 -112 0
1 132 81 0
1 -132 -81 0
1 132 10 0
1 -132 -10 0
1 132 100 0
1 -132 -100 0
1 134 24 0
1 -134 -24 0
1 134 36 0
1 -134 -36 0
1 134 12 0
1 -134 -12 0
1 59 67 0
1 -59 -67 0
1 59 4 0
1 -59 -4 0
1 59 83 0
1 -59 -83 0
1 23 19 0
1 -23 -19 0
1 23 105 0
1 -23 -105 0
1 23 101 0
1 -23 -101 0
1 74 138 0
1 -74 -138 0
1 74 65 0
1 -74 -65 0
1 74 97 0
1 -74 -97 0
1 86 127 0
1 -86 -127 0
1 86 54 0
1 -86 -54 0
1 86 69 0
1 -86 -69 0
1 48 32 0
1 -48 -32 0
1 48 111 0
1 -48 -111 0
1 98 87 0
1 -98 -87 0
1 98 11 0
1 -98 -11 0
1 98 57 0
1 -98 -57 0
1 46 18 0
1 -46 -18 0
1 46 137 0
1 -46 -137 0
1 46 126 0
1 -46 -126 0
1 113 94 0
1 -113 -94 0
1 113 93 0
1 -113 -93 0
1 113 20 0
1 -113 -20 0
1 56 44 0
1 -56 -44 0
1 56 38 0
1 -56 -38 0
1 56 96 0
1 -56 -96 0
1 61 39 0
1 -61 -39 0
1 61 81 0
1 -61 -81 0
1 61 135 0
1 -61 -135 0
1 37 12 0
1 -37 -12 0
1 37 71 0
1 -37 -71 0
1 37 32 0
1 -37 -32 0
1 124 20 0
1 -124 -20 0
1 124 26 0
1 -124 -26 0
1 124 125 0
1 -124 -125 0
1 88 36 0
1 -88 -36 0
1 88 131 0
1 -88 -131 0
1 88 44 0
1 -88 -44 0
1 89 45 0
1 -89 -45 0
1 89 18 0
1 -89 -18 0
1 115 54 0
1 -115 -54 0
1 115 10 0
1 -115 -10 0
1 115 71 0
1 -115 -71 0
1 68 107 0
1 -68 -107 0
1 68 27 0
1 -68 -27 0
1 68 60 0
1 -68 -60 0
1 9 57 0
1 -9 -57 0
1 9 36 0
1 -9 -36 0
1 75 131 0
1 -75 -131 0
1 75 30 0
1 -75 -30 0
1 75 1 0
1 -75 -1 0
1 8 11 0
1 -8 -11 0
1 8 33 0
1 -8 -33 0
1 8 17 0
1 -8 -17 0
1 104 38 0
1 -104 -38 0
1 104 130 0
1 -104 -130 0
1 104 67 0
1 -104 -67 0
1 49 84 0
1 -49 -84 0
1 49 39 0
1 -49 -39 0
1 49 107 0
1 -49 -107 0
1 51 93 0
1 -51 -93 0
1 51 127 0
1 -51 -127 0
1 2 101 0
1 -2 -101 0
1 2 45 0
1 -2 -45 0
1 2 77 0
1 -2 -77 0
1 119 60 0
1 -119 -60 0
1 119 32 0
1 -119 -32 0
1 119 52 0
1 -119 -52 0
1 40 105 0
1 -40 -105 0
1 40 109 0
1 -40 -109 0
1 50 71 0
1 -50 -71 0
1 50 125 0
1 -50 -125 0
1 85 106 0
1 -85 -106 0
1 85 127 0
1 -85 -127 0
1 85 87 0
1 -85 -87 0
1 116 30 0
1 -116 -30 0
1 116 54 0
1 -116 -54 0
1 116 120 0
1 -116 -120 0
1 136 65 0
1 -136 -65 0
1 136 117 0
1 -136 -117 0
1 136 47 0
1 -136 -47 0
1 34 69 0
1 -34 -69 0
1 34 139 0
1 -34 -139 0
1 34 138 0
1 -34 -138 0
1 43 97 0
1 -43 -97 0
1 43 120 0
1 -43 -120 0
1 15 4 0
1 -15 -4 0
1 15 24 0
1 -15 -24 0
1 15 140 0
1 -15 -140 0
1 121 110 0
1 -121 -110 0
1 121 138 0
1 -121 -138 0
1 3 100 0
1 -3 -100 0
1 3 67 0
1 -3 -67 0
1 3 105 0
1 -3 -105 0
1 28 31 0
1 -28 -31 0
1 28 111 0
1 -28 -111 0
1 55 53 0
1 -55 -53 0
1 55 130 0
1 -55 -130 0
1 29 1 0
1 -29 -1 0
1 29 31 0
1 -29 -31 0
1 29 112 0
1 -29 -112 0
1 80 17 0
1 -80 -17 0
1 80 110 0
1 -80 -110 0
1 29 126 0
1 -29 -126 0
1 52 125 0
1 -52 -125 0
1 64 98 0
1 -64 -98 0
1 80 96 0
1 -80 -96 0
1 57 110 0
1 -57 -110 0
1 25 95 0
1 -25 -95 0
1 114 107 0
1 -114 -107 0
1 57 65 0
1 -57 -65 0
1 22 104 0
1 -22 -104 0
1 15 121 0
1 -15 -121 0
1 114 120 0
1 -114 -120 0
1 75 19 0
1 -75 -19 0
1 122 8 0
1 -122 -8 0
1 115 111 0
1 -115 -111 0
1 91 100 0
1 -91 -100 0
1 116 20 0
1 -116 -20 0
1 102 43 0
1 -102 -43 0
1 58 26 0
1 -58 -26 0
1 66 20 0
1 -66 -20 0
1 74 56 0
1 -74 -56 0
1 114 129 0
1 -114 -129 0
1 22 15 0
1 -22 -15 0
1 82 34 0
1 -82 -34 0
1 119 12 0
1 -119 -12 0
1 119 129 0
1 -119 -129 0
1 89 12 0
1 -89 -12 0
1 16 30 0
1 -16 -30 0
1 123 19 0
1 -123 -19 0
1 37 50 0
1 -37 -50 0
1 135 84 0
1 -135 -84 0
1 118 101 0
1 -118 -101 0
1 50 17 0
1 -50 -17 0
1 11 31 0
1 -11 -31 0
1 19 31 0
1 -19 -31 0
1 104 120 0
1 -104 -120 0
1 136 30 0
1 -136 -30 0
1 44 36 0
1 -44 -36 0
1 124 116 0
1 -124 -116 0
1 90 104 0
1 -90 -104 0
1 87 93 0
1 -87 -93 0
1 111 110 0
1 -111 -110 0
1 99 123 0
1 -99 -123 0
1 108 7 0
1 -108 -7 0
1 75 31 0
1 -75 -31 0
1 99 59 0
1 -99 -59 0
1 85 81 0
1 -85 -81 0
1 21 108 0
1 -21 -108 0
1 139 103 0
1 -139 -103 0
1 37 1 0
1 -37 -1 0
1 114 55 0
1 -114 -55 0
1 124 101 0
1 -124 -101 0
1 102 65 0
1 -102 -65 0
1 44 101 0
1 -44 -101 0
1 91 27 0
1 -91 -27 0
1 2 106 0
1 -2 -106 0
1 132 12 0
1 -132 -12 0
1 72 32 0
1 -72 -32 0
1 50 140 0
1 -50 -140 0
1 41 26 0
1 -41 -26 0
1 78 29 0
1 -78 -29 0
1 67 105 0
1 -67 -105 0
1 92 134 0
1 -92 -134 0
1 41 94 0
1 -41 -94 0
1 5 37 0
1 -5 -37 0
1 2 29 0
1 -2 -29 0
1 95 3 0
1 -95 -3 0
1 123 69 0
1 -123 -69 0
1 104 18 0
1 -104 -18 0
1 114 101 0
1 -114 -101 0
1 68 43 0
1 -68 -43 0
1 55 10 0
1 -55 -10 0
1 43 44 0
1 -43 -44 0
1 76 61 0
1 -76 -61 0
1 102 17 0
1 -102 -17 0
1 63 47 0
1 -63 -47 0
1 109 10 0
1 -109 -10 0
1 78 132 0
1 -78 -132 0
1 22 55 0
1 -22 -55 0
1 92 12 0
1 -92 -12 0
1 73 108 0
1 -73 -108 0
1 115 117 0
1 -115 -117 0
1 48 12 0
1 -48 -12 0
1 59 136 0
1 -59 -136 0
1 56 135 0
1 -56 -135 0
1 86 68 0
1 -86 -68 0
1 123 51 0
1 -123 -51 0
1 73 13 0
1 -73 -13 0
1 62 87 0
1 -62 -87 0
1 34 135 0
1 -34 -135 0
1 22 39 0
1 -22 -39 0
1 50 117 0
1 -50 -117 0
1 86 124 0
1 -86 -124 0
1 29 52 0
1 -29 -52 0
1 41 30 0
1 -41 -30 0
1 77 93 0
1 -77 -93 0
1 41 107 0
1 -41 -107 0
1 52 93 0
1 -52 -93 0
1 124 57 0
1 -124 -57 0
1 41 31 0
1 -41 -31 0
1 140 33 0
1 -140 -33 0
1 63 77 0
1 -63 -77 0
1 134 71 0
1 -134 -71 0
1 34 106 0
1 -34 -106 0
1 7 109 0
1 -7 -109 0
1 56 20 0
1 -56 -20 0
1 21 121 0
1 -21 -121 0
1 114 132 0
1 -114 -132 0
1 104 32 0
1 -104 -32 0
1 121 57 0
1 -121 -57 0
1 134 80 0
1 -134 -80 0
1 48 31 0
1 -48 -31 0
1 78 135 0
1 -78 -135 0
1 131 38 0
1 -131 -38 0
1 25 120 0
1 -25 -120 0
1 102 42 0
1 -102 -42 0
1 138 131 0
1 -138 -131 0
1 119 125 0
1 -119 -125 0
1 24 38 0
1 -24 -38 0
1 117 47 0
1 -117 -47 0
1 73 97 0
1 -73 -97 0
1 99 98 0
1 -99 -98 0
1 61 97 0
1 -61 -97 0
1 132 32 0
1 -132 -32 0
1 79 110 0
1 -79 -110 0
1 109 112 0
1 -109 -112 0
1 90 108 0
1 -90 -108 0
1 124 34 0
1 -124 -34 0
1 77 60 0
1 -77 -60 0
1 2 39 0
1 -2 -39 0
1 79 48 0
1 -79 -48 0
1 99 80 0
1 -99 -80 0
1 27 126 0
1 -27 -126 0
1 83 126 0
1 -83 -126 0
1 84 71 0
1 -84 -71 0
1 129 60 0
1 -129 -60 0
1 16 117 0
1 -16 -117 0
1 124 55 0
1 -124 -55 0
1 124 35 0
1 -124 -35 0
1 76 84 0
1 -76 -84 0
1 4 17 0
1 -4 -17 0
1 75 112 0
1 -75 -112 0
1 108 16 0
1 -108 -16 0
1 122 139 0
1 -122 -139 0
1 43 13 0
1 -43 -13 0
1 41 51 0
1 -41 -51 0
1 16 75 0
1 -16 -75 0
1 66 53 0
1 -66 -53 0
1 120 13 0
1 -120 -13 0
1 72 47 0
1 -72 -47 0
1 20 107 0
1 -20 -107 0
1 37 27 0
1 -37 -27 0
1 63 103 0
1 -63 -103 0
1 46 50 0
1 -46 -50 0
1 20 93 0
1 -20 -93 0
1 21 1 0
1 -21 -1 0
1 82 85 0
1 -82 -85 0
1 49 38 0
1 -49 -38 0
1 79 124 0
1 -79 -124 0
1 121 42 0
1 -121 -42 0
1 113 100 0
1 -113 -100 0
1 98 56 0
1 -98 -56 0
1 88 80 0
1 -88 -80 0
1 123 115 0
1 -123 -115 0
1 62 28 0
1 -62 -28 0
1 87 65 0
1 -87 -65 0
1 21 15 0
1 -21 -15 0
1 86 57 0
1 -86 -57 0
1 66 87 0
1 -66 -87 0
1 122 85 0
1 -122 -85 0
1 73 103 0
1 -73 -103 0
1 138 127 0
1 -138 -127 0
1 5 33 0
1 -5 -33 0
1 90 119 0
1 -90 -119 0
1 93 69 0
1 -93 -69 0
1 68 106 0
1 -68 -106 0
1 122 118 0
1 -122 -118 0
1 89 96 0
1 -89 -96 0
1 85 129 0
1 -85 -129 0
1 62 77 0
1 -62 -77 0
1 16 72 0
1 -16 -72 0
1 59 93 0
1 -59 -93 0
1 43 32 0
1 -43 -32 0
1 32 18 0
1 -32 -18 0
1 56 80 0
1 -56 -80 0
1 55 60 0
1 -55 -60 0
1 89 69 0
1 -89 -69 0
1 61 93 0
1 -61 -93 0
1 136 24 0
1 -136 -24 0
1 104 117 0
1 -104 -117 0
1 49 125 0
1 -49 -125 0
1 29 18 0
1 -29 -18 0
1 5 31 0
1 -5 -31 0
1 85 10 0
1 -85 -10 0
1 35 110 0
1 -35 -110 0
1 35 65 0
1 -35 -65 0
1 41 85 0
1 -41 -85 0
1 108 29 0
1 -108 -29 0
1 27 60 0
1 -27 -60 0
1 2 44 0
1 -2 -44 0
1 83 12 0
1 -83 -12 0
1 117 10 0
1 -117 -10 0
1 116 31 0
1 -116 -31 0
1 37 26 0
1 -37 -26 0
1 16 119 0
1 -16 -119 0
1 64 29 0
1 -64 -29 0
1 104 128 0
1 -104 -128 0
1 63 65 0
1 -63 -65 0
1 104 57 0
1 -104 -57 0
1 82 29 0
1 -82 -29 0
1 88 47 0
1 -88 -47 0
1 116 77 0
1 -116 -77 0
1 82 66 0
1 -82 -66 0
1 74 19 0
1 -74 -19 0
1 90 2 0
1 -90 -2 0
1 12 1 0
1 -12 -1 0
1 91 44 0
1 -91 -44 0
1 7 56 0
1 -7 -56 0
1 13 87 0
1 -13 -87 0
1 115 96 0
1 -115 -96 0
1 16 1 0
1 -16 -1 0
1 51 96 0
1 -51 -96 0
1 104 85 0
1 -104 -85 0
1 34 60 0
1 -34 -60 0
1 37 19 0
1 -37 -19 0
1 115 93 0
1 -115 -93 0
1 39 1 0
1 -39 -1 0
1 56 37 0
1 -56 -37 0
1 66 47 0
1 -66 -47 0
1 16 132 0
1 -16 -132 0
1 136 140 0
1 -136 -140 0
1 114 24 0
1 -114 -24 0
1 76 73 0
1 -76 -73 0
1 6 40 0
1 -6 -40 0
1 59 43 0
1 -59 -43 0
1 90 96 0
1 -90 -96 0
1 79 59 0
1 -79 -59 0
1 9 135 0
1 -9 -135 0
1 120 111 0
1 -120 -111 0
1 43 52 0
1 -43 -52 0
1 14 44 0
1 -14 -44 0
1 126 131 0
1 -126 -131 0
1 79 7 0
1 -79 -7 0
1 139 13 0
1 -139 -13 0
1 25 56 0
1 -25 -56 0
1 50 20 0
1 -50 -20 0
1 114 34 0
1 -114 -34 0
1 137 103 0
1 -137 -103 0
1 25 138 0
1 -25 -138 0
1 66 110 0
1 -66 -110 0
1 73 69 0
1 -73 -69 0
1 120 10 0
1 -120 -10 0
1 9 94 0
1 -9 -94 0
1 26 38 0
1 -26 -38 0
1 5 126 0
1 -5 -126 0
1 107 69 0
1 -107 -69 0
1 70 63 0
1 -70 -63 0
1 57 101 0
1 -57 -101 0
1 15 69 0
1 -15 -69 0
1 66 139 0
1 -66 -139 0
1 92 3 0
1 -92 -3 0
1 99 75 0
1 -99 -75 0
1 113 77 0
1 -113 -77 0
1 14 62 0
1 -14 -62 0
1 123 74 0
1 -123 -74 0
1 51 137 0
1 -51 -137 0
1 26 30 0
1 -26 -30 0
1 63 110 0
1 -63 -110 0
1 28 39 0
1 -28 -39 0
1 89 121 0
1 -89 -121 0
1 83 139 0
1 -83 -139 0
1 127 18 0
1 -127 -18 0
1 57 106 0
1 -57 -106 0
1 64 129 0
1 -64 -129 0
1 13 97 0
1 -13 -97 0
1 51 116 0
1 -51 -116 0
1 25 100 0
1 -25 -100 0
1 18 93 0
1 -18 -93 0
1 34 87 0
1 -34 -87 0
1 7 125 0
1 -7 -125 0
1 119 44 0
1 -119 -44 0
1 16 33 0
1 -16 -33 0
1 131 97 0
1 -131 -97 0
1 63 137 0
1 -63 -137 0
1 91 41 0
1 -91 -41 0
1 98 139 0
1 -98 -139 0
1 128 18 0
1 -128 -18 0
1 43 112 0
1 -43 -112 0
1 92 81 0
1 -92 -81 0
1 122 7 0
1 -122 -7 0
1 55 31 0
1 -55 -31 0
1 80 112 0
1 -80 -112 0
1 50 67 0
1 -50 -67 0
1 27 138 0
1 -27 -138 0
1 8 138 0
1 -8 -138 0
1 61 55 0
1 -61 -55 0
1 68 121 0
1 -68 -121 0
1 91 109 0
1 -91 -109 0
1 37 84 0
1 -37 -84 0
1 108 17 0
1 -108 -17 0
1 18 39 0
1 -18 -39 0
1 112 67 0
1 -112 -67 0
1 43 17 0
1 -43 -17 0
1 70 17 0
1 -70 -17 0
1 68 125 0
1 -68 -125 0
1 104 28 0
1 -104 -28 0
1 29 84 0
1 -29 -84 0
1 115 36 0
1 -115 -36 0
1 79 97 0
1 -79 -97 0
1 92 118 0
1 -92 -118 0
1 78 130 0
1 -78 -130 0
1 136 131 0
1 -136 -131 0
1 62 128 0
1 -62 -128 0
1 8 39 0
1 -8 -39 0
1 116 121 0
1 -116 -121 0
1 48 9 0
1 -48 -9 0
1 126 100 0
1 -126 -100 0
1 49 81 0
1 -49 -81 0
1 21 17 0
1 -21 -17 0
1 74 112 0
1 -74 -112 0
1 133 72 0
1 -133 -72 0
1 79 46 0
1 -79 -46 0
1 63 9 0
1 -63 -9 0
1 136 60 0
1 -136 -60 0
1 133 137 0
1 -133 -137 0
1 76 9 0
1 -76 -9 0
1 9 110 0
1 -9 -110 0
1 37 105 0
1 -37 -105 0
1 74 107 0
1 -74 -107 0
1 110 53 0
1 -110 -53 0
1 49 135 0
1 -49 -135 0
1 75 129 0
1 -75 -129 0
1 65 17 0
1 -65 -17 0
1 42 38 0
1 -42 -38 0
1 134 89 0
1 -134 -89 0
1 58 112 0
1 -58 -112 0
1 115 107 0
1 -115 -107 0
1 89 34 0
1 -89 -34 0
1 114 63 0
1 -114 -63 0
1 76 1 0
1 -76 -1 0
1 81 105 0
1 -81 -105 0
1 124 8 0
1 -124 -8 0
1 49 105 0
1 -49 -105 0
1 99 4 0
1 -99 -4 0
1 104 33 0
1 -104 -33 0
1 80 19 0
1 -80 -19 0
1 57 100 0
1 -57 -100 0
1 16 80 0
1 -16 -80 0
1 91 23 0
1 -91 -23 0
1 58 137 0
1 -58 -137 0
1 68 19 0
1 -68 -19 0
1 119 84 0
1 -119 -84 0
1 125 101 0
1 -125 -101 0
1 88 49 0
1 -88 -49 0
1 8 117 0
1 -8 -117 0
1 37 51 0
1 -37 -51 0
1 121 20 0
1 -121 -20 0
1 132 106 0
1 -132 -106 0
1 41 38 0
1 -41 -38 0
1 25 32 0
1 -25 -32 0
1 89 35 0
1 -89 -35 0
1 43 103 0
1 -43 -103 0
1 35 69 0
1 -35 -69 0
1 115 39 0
1 -115 -39 0
1 123 104 0
1 -123 -104 0
1 99 61 0
1 -99 -61 0
1 62 15 0
1 -62 -15 0
1 59 94 0
1 -59 -94 0
1 133 65 0
1 -133 -65 0
1 35 100 0
1 -35 -100 0
1 102 13 0
1 -102 -13 0
1 37 96 0
1 -37 -96 0
1 5 133 0
1 -5 -133 0
1 133 89 0
1 -133 -89 0
1 122 6 0
1 -122 -6 0
1 25 46 0
1 -25 -46 0
1 21 101 0
1 -21 -101 0
1 7 67 0
1 -7 -67 0
1 91 1 0
1 -91 -1 0
1 70 8 0
1 -70 -8 0
1 9 15 0
1 -9 -15 0
1 5 71 0
1 -5 -71 0
1 14 126 0
1 -14 -126 0
1 112 54 0
1 -112 -54 0
1 51 84 0
1 -51 -84 0
1 35 26 0
1 -35 -26 0
1 76 63 0
1 -76 -63 0
1 70 36 0
1 -70 -36 0
1 70 101 0
1 -70 -101 0
1 116 28 0
1 -116 -28 0
1 39 20 0
1 -39 -20 0
1 76 105 0
1 -76 -105 0
1 9 72 0
1 -9 -72 0
1 74 45 0
1 -74 -45 0
1 14 80 0
1 -14 -80 0
1 56 87 0
1 -56 -87 0
1 78 138 0
1 -78 -138 0
1 134 115 0
1 -134 -115 0
1 41 109 0
1 -41 -109 0
1 22 106 0
1 -22 -106 0
1 6 136 0
1 -6 -136 0
1 55 139 0
1 -55 -139 0
1 120 131 0
1 -120 -131 0
1 89 81 0
1 -89 -81 0
1 123 124 0
1 -123 -124 0
1 36 101 0
1 -36 -101 0
1 73 128 0
1 -73 -128 0
1 76 26 0
1 -76 -26 0
1 44 84 0
1 -44 -84 0
1 24 87 0
1 -24 -87 0
1 101 53 0
1 -101 -53 0
1 49 35 0
1 -49 -35 0
1 112 97 0
1 -112 -97 0
1 21 129 0
1 -21 -129 0
1 108 115 0
1 -108 -115 0
1 104 10 0
1 -104 -10 0
1 41 84 0
1 -41 -84 0
1 111 18 0
1 -111 -18 0
1 8 130 0
1 -8 -130 0
1 109 103 0
1 -109 -103 0
1 16 139 0
1 -16 -139 0
1 41 117 0
1 -41 -117 0
1 138 107 0
1 -138 -107 0
1 25 53 0
1 -25 -53 0
1 85 94 0
1 -85 -94 0
1 76 5 0
1 -76 -5 0
1 84 4 0
1 -84 -4 0
1 35 33 0
1 -35 -33 0
1 27 44 0
1 -27 -44 0
1 49 30 0
1 -49 -30 0
1 41 39 0
1 -41 -39 0
1 84 65 0
1 -84 -65 0
1 5 12 0
1 -5 -12 0
1 58 70 0
1 -58 -70 0
1 45 106 0
1 -45 -106 0
1 70 125 0
1 -70 -125 0
1 25 103 0
1 -25 -103 0
1 56 89 0
1 -56 -89 0
1 86 37 0
1 -86 -37 0
1 34 97 0
1 -34 -97 0
1 126 94 0
1 -126 -94 0
1 28 87 0
1 -28 -87 0
